mapa = [|
         9,9,9,9,9,9,9,9,9,9,9,9,9|
         9,9,9,8,8,8,1,8,8,8,9,9,9|
         9,8,8,8,9,8,8,8,9,8,8,8,9|
         9,8,8,1,8,8,8,8,8,1,8,8,9|
         9,8,8,8,9,8,8,8,9,8,8,8,9|
         9,9,9,9,9,9,9,9,9,9,9,9,9|];
dimx = 6;
dimy = 13;
filav = 4;
colav = 7;
